benchmark/results/graph__10-1000-0.10-02_1/graph__10-1000-0.10-02_1_Quinton_Benders_master.lp
\ This file has been generated by DOcplex
\ ENCODING=ISO-8859-1
\Problem name: Quinton Benders_master

Maximize
 obj: z
Subject To
 c1: m_a0_proc_1 = 1
 c2: m_a1_proc_0 = 1
 c3: m_a2_proc_0 + m_a2_proc_1 = 1
 c4: m_a3_proc_0 = 1
 c5: m_a4_proc_0 + m_a4_proc_1 = 1
 c6: m_a5_proc_0 + m_a5_proc_1 = 1
 c7: m_a6_proc_0 + m_a6_proc_1 = 1
 c8: m_a7_proc_0 + m_a7_proc_1 = 1
 c9: m_a8_proc_0 + m_a8_proc_1 = 1
 c10: m_a9_proc_1 = 1
 c11: K_a0_a2 + K_a2_a0 = 1
 c12: K_a0_a2 + K_a2_a0 = 1
 c13: K_a0_a4 + K_a4_a0 = 1
 c14: K_a0_a4 + K_a4_a0 = 1
 c15: K_a0_a5 + K_a5_a0 = 1
 c16: K_a0_a5 + K_a5_a0 = 1
 c17: K_a0_a6 + K_a6_a0 = 1
 c18: K_a0_a6 + K_a6_a0 = 1
 c19: K_a0_a7 + K_a7_a0 = 1
 c20: K_a0_a7 + K_a7_a0 = 1
 c21: K_a0_a8 + K_a8_a0 = 1
 c22: K_a0_a8 + K_a8_a0 = 1
 c23: K_a0_a9 + K_a9_a0 = 1
 c24: K_a0_a9 + K_a9_a0 = 1
 c25: K_a1_a2 + K_a2_a1 = 1
 c26: K_a1_a2 + K_a2_a1 = 1
 c27: K_a1_a3 + K_a3_a1 = 1
 c28: K_a1_a3 + K_a3_a1 = 1
 c29: K_a1_a4 + K_a4_a1 = 1
 c30: K_a1_a4 + K_a4_a1 = 1
 c31: K_a1_a5 + K_a5_a1 = 1
 c32: K_a1_a5 + K_a5_a1 = 1
 c33: K_a1_a6 + K_a6_a1 = 1
 c34: K_a1_a6 + K_a6_a1 = 1
 c35: K_a1_a7 + K_a7_a1 = 1
 c36: K_a1_a7 + K_a7_a1 = 1
 c37: K_a1_a8 + K_a8_a1 = 1
 c38: K_a1_a8 + K_a8_a1 = 1
 c39: K_a2_a3 + K_a3_a2 = 1
 c40: K_a2_a3 + K_a3_a2 = 1
 c41: K_a2_a4 + K_a4_a2 = 1
 c42: K_a2_a4 + K_a4_a2 = 1
 c43: K_a2_a5 + K_a5_a2 = 1
 c44: K_a2_a5 + K_a5_a2 = 1
 c45: K_a2_a6 + K_a6_a2 = 1
 c46: K_a2_a6 + K_a6_a2 = 1
 c47: K_a2_a7 + K_a7_a2 = 1
 c48: K_a2_a7 + K_a7_a2 = 1
 c49: K_a2_a8 + K_a8_a2 = 1
 c50: K_a2_a8 + K_a8_a2 = 1
 c51: K_a2_a9 + K_a9_a2 = 1
 c52: K_a2_a9 + K_a9_a2 = 1
 c53: K_a3_a4 + K_a4_a3 = 1
 c54: K_a3_a4 + K_a4_a3 = 1
 c55: K_a3_a5 + K_a5_a3 = 1
 c56: K_a3_a5 + K_a5_a3 = 1
 c57: K_a3_a6 + K_a6_a3 = 1
 c58: K_a3_a6 + K_a6_a3 = 1
 c59: K_a3_a7 + K_a7_a3 = 1
 c60: K_a3_a7 + K_a7_a3 = 1
 c61: K_a3_a8 + K_a8_a3 = 1
 c62: K_a3_a8 + K_a8_a3 = 1
 c63: K_a4_a5 + K_a5_a4 = 1
 c64: K_a4_a5 + K_a5_a4 = 1
 c65: K_a4_a6 + K_a6_a4 = 1
 c66: K_a4_a6 + K_a6_a4 = 1
 c67: K_a4_a7 + K_a7_a4 = 1
 c68: K_a4_a7 + K_a7_a4 = 1
 c69: K_a4_a8 + K_a8_a4 = 1
 c70: K_a4_a8 + K_a8_a4 = 1
 c71: K_a4_a9 + K_a9_a4 = 1
 c72: K_a4_a9 + K_a9_a4 = 1
 c73: K_a5_a6 + K_a6_a5 = 1
 c74: K_a5_a6 + K_a6_a5 = 1
 c75: K_a5_a7 + K_a7_a5 = 1
 c76: K_a5_a7 + K_a7_a5 = 1
 c77: K_a5_a8 + K_a8_a5 = 1
 c78: K_a5_a8 + K_a8_a5 = 1
 c79: K_a5_a9 + K_a9_a5 = 1
 c80: K_a5_a9 + K_a9_a5 = 1
 c81: K_a6_a7 + K_a7_a6 = 1
 c82: K_a6_a7 + K_a7_a6 = 1
 c83: K_a6_a8 + K_a8_a6 = 1
 c84: K_a6_a8 + K_a8_a6 = 1
 c85: K_a6_a9 + K_a9_a6 = 1
 c86: K_a6_a9 + K_a9_a6 = 1
 c87: K_a7_a8 + K_a8_a7 = 1
 c88: K_a7_a8 + K_a8_a7 = 1
 c89: K_a7_a9 + K_a9_a7 = 1
 c90: K_a7_a9 + K_a9_a7 = 1
 c91: K_a8_a9 + K_a9_a8 = 1
 c92: K_a8_a9 + K_a9_a8 = 1
 c93: z <= 99999999989999992832
 c94: - 1283 m_a0_proc_1 + w_a1 - w_a0 >= -1283.877036611079
 c95: K_a0_a2 - 1283 m_a0_proc_1 - 1283 m_a2_proc_1 + w_a2 - w_a0 >= 
      -2565.877036611079
 c96: K_a0_a4 - 1283 m_a0_proc_1 - 1283 m_a4_proc_1 + w_a4 - w_a0 >= 
      -2565.877036611079
 c97: K_a0_a5 - 1283 m_a0_proc_1 - 1283 m_a5_proc_1 + w_a5 - w_a0 >= 
      -2565.877036611079
 c98: K_a0_a6 - 1283 m_a0_proc_1 - 1283 m_a6_proc_1 + w_a6 - w_a0 >= 
      -2565.877036611079
 c99: K_a0_a7 - 1283 m_a0_proc_1 - 1283 m_a7_proc_1 + w_a7 - w_a0 >= 
      -2565.877036611079
 c100: K_a0_a8 - 1283 m_a0_proc_1 - 1283 m_a8_proc_1 + w_a8 - w_a0 >= 
       -2565.877036611079
 c101: K_a0_a9 - 1283 m_a0_proc_1 - 1283 m_a9_proc_1 + w_a9 - w_a0 >= 
       -2565.877036611079
 c102: - 1283 m_a1_proc_0 + w_a0 - w_a1 >= -1282.885853939045
 c103: K_a1_a2 - 1283 m_a1_proc_0 - 1283 m_a2_proc_0 + w_a2 - w_a1 >= 
       -2565.885853939045
 c104: K_a1_a3 - 1283 m_a1_proc_0 - 1283 m_a3_proc_0 + w_a3 - w_a1 >= 
       -2565.885853939045
 c105: K_a1_a4 - 1283 m_a1_proc_0 - 1283 m_a4_proc_0 + w_a4 - w_a1 >= 
       -2565.885853939045
 c106: K_a1_a5 - 1283 m_a1_proc_0 - 1283 m_a5_proc_0 + w_a5 - w_a1 >= 
       -2565.885853939045
 c107: K_a1_a6 - 1283 m_a1_proc_0 - 1283 m_a6_proc_0 + w_a6 - w_a1 >= 
       -2565.885853939045
 c108: K_a1_a7 - 1283 m_a1_proc_0 - 1283 m_a7_proc_0 + w_a7 - w_a1 >= 
       -2565.885853939045
 c109: K_a1_a8 - 1283 m_a1_proc_0 - 1283 m_a8_proc_0 + w_a8 - w_a1 >= 
       -2565.885853939045
 c110: - 1283 m_a2_proc_0 + w_a0 - w_a2 >= -1282.941633122484
 c111: - 1283 m_a2_proc_0 + w_a8 - w_a2 >= -1283.941633122484
 c112: K_a2_a1 - 1283 m_a1_proc_0 - 1283 m_a2_proc_0 + w_a1 - w_a2 >= 
       -2565.941633122484
 c113: K_a2_a3 - 1283 m_a2_proc_0 - 1283 m_a3_proc_0 + w_a3 - w_a2 >= 
       -2565.941633122484
 c114: K_a2_a4 - 1283 m_a2_proc_0 - 1283 m_a4_proc_0 + w_a4 - w_a2 >= 
       -2565.941633122484
 c115: K_a2_a5 - 1283 m_a2_proc_0 - 1283 m_a5_proc_0 + w_a5 - w_a2 >= 
       -2565.941633122484
 c116: K_a2_a6 - 1283 m_a2_proc_0 - 1283 m_a6_proc_0 + w_a6 - w_a2 >= 
       -2565.941633122484
 c117: K_a2_a7 - 1283 m_a2_proc_0 - 1283 m_a7_proc_0 + w_a7 - w_a2 >= 
       -2565.941633122484
 c118: K_a2_a8 - 1283 m_a2_proc_0 - 1283 m_a8_proc_0 + w_a8 - w_a2 >= 
       -2565.941633122484
 c119: - 1283 m_a2_proc_1 + w_a0 - w_a2 >= -1282.895725512747
 c120: - 1283 m_a2_proc_1 + w_a8 - w_a2 >= -1283.895725512747
 c121: K_a2_a0 - 1283 m_a0_proc_1 - 1283 m_a2_proc_1 + w_a0 - w_a2 >= 
       -2565.895725512747
 c122: K_a2_a4 - 1283 m_a2_proc_1 - 1283 m_a4_proc_1 + w_a4 - w_a2 >= 
       -2565.895725512747
 c123: K_a2_a5 - 1283 m_a2_proc_1 - 1283 m_a5_proc_1 + w_a5 - w_a2 >= 
       -2565.895725512747
 c124: K_a2_a6 - 1283 m_a2_proc_1 - 1283 m_a6_proc_1 + w_a6 - w_a2 >= 
       -2565.895725512747
 c125: K_a2_a7 - 1283 m_a2_proc_1 - 1283 m_a7_proc_1 + w_a7 - w_a2 >= 
       -2565.895725512747
 c126: K_a2_a8 - 1283 m_a2_proc_1 - 1283 m_a8_proc_1 + w_a8 - w_a2 >= 
       -2565.895725512747
 c127: K_a2_a9 - 1283 m_a2_proc_1 - 1283 m_a9_proc_1 + w_a9 - w_a2 >= 
       -2565.895725512747
 c128: - 1283 m_a3_proc_0 + w_a2 - w_a3 >= -1282.891316848764
 c129: - 1283 m_a3_proc_0 + w_a6 - w_a3 >= -1283.891316848764
 c130: K_a3_a1 - 1283 m_a1_proc_0 - 1283 m_a3_proc_0 + w_a1 - w_a3 >= 
       -2565.891316848764
 c131: K_a3_a2 - 1283 m_a2_proc_0 - 1283 m_a3_proc_0 + w_a2 - w_a3 >= 
       -2565.891316848764
 c132: K_a3_a4 - 1283 m_a3_proc_0 - 1283 m_a4_proc_0 + w_a4 - w_a3 >= 
       -2565.891316848764
 c133: K_a3_a5 - 1283 m_a3_proc_0 - 1283 m_a5_proc_0 + w_a5 - w_a3 >= 
       -2565.891316848764
 c134: K_a3_a6 - 1283 m_a3_proc_0 - 1283 m_a6_proc_0 + w_a6 - w_a3 >= 
       -2565.891316848764
 c135: K_a3_a7 - 1283 m_a3_proc_0 - 1283 m_a7_proc_0 + w_a7 - w_a3 >= 
       -2565.891316848764
 c136: K_a3_a8 - 1283 m_a3_proc_0 - 1283 m_a8_proc_0 + w_a8 - w_a3 >= 
       -2565.891316848764
 c137: - 1283 m_a4_proc_0 + w_a0 - w_a4 >= -1282.925627755415
 c138: - 1283 m_a4_proc_0 + w_a7 - w_a4 >= -1282.925627755415
 c139: K_a4_a1 - 1283 m_a1_proc_0 - 1283 m_a4_proc_0 + w_a1 - w_a4 >= 
       -2565.925627755415
 c140: K_a4_a2 - 1283 m_a2_proc_0 - 1283 m_a4_proc_0 + w_a2 - w_a4 >= 
       -2565.925627755415
 c141: K_a4_a3 - 1283 m_a3_proc_0 - 1283 m_a4_proc_0 + w_a3 - w_a4 >= 
       -2565.925627755415
 c142: K_a4_a5 - 1283 m_a4_proc_0 - 1283 m_a5_proc_0 + w_a5 - w_a4 >= 
       -2565.925627755415
 c143: K_a4_a6 - 1283 m_a4_proc_0 - 1283 m_a6_proc_0 + w_a6 - w_a4 >= 
       -2565.925627755415
 c144: K_a4_a7 - 1283 m_a4_proc_0 - 1283 m_a7_proc_0 + w_a7 - w_a4 >= 
       -2565.925627755415
 c145: K_a4_a8 - 1283 m_a4_proc_0 - 1283 m_a8_proc_0 + w_a8 - w_a4 >= 
       -2565.925627755415
 c146: - 1283 m_a4_proc_1 + w_a0 - w_a4 >= -1282.959555299981
 c147: - 1283 m_a4_proc_1 + w_a7 - w_a4 >= -1282.959555299981
 c148: K_a4_a0 - 1283 m_a0_proc_1 - 1283 m_a4_proc_1 + w_a0 - w_a4 >= 
       -2565.959555299981
 c149: K_a4_a2 - 1283 m_a2_proc_1 - 1283 m_a4_proc_1 + w_a2 - w_a4 >= 
       -2565.959555299981
 c150: K_a4_a5 - 1283 m_a4_proc_1 - 1283 m_a5_proc_1 + w_a5 - w_a4 >= 
       -2565.959555299981
 c151: K_a4_a6 - 1283 m_a4_proc_1 - 1283 m_a6_proc_1 + w_a6 - w_a4 >= 
       -2565.959555299981
 c152: K_a4_a7 - 1283 m_a4_proc_1 - 1283 m_a7_proc_1 + w_a7 - w_a4 >= 
       -2565.959555299981
 c153: K_a4_a8 - 1283 m_a4_proc_1 - 1283 m_a8_proc_1 + w_a8 - w_a4 >= 
       -2565.959555299981
 c154: K_a4_a9 - 1283 m_a4_proc_1 - 1283 m_a9_proc_1 + w_a9 - w_a4 >= 
       -2565.959555299981
 c155: - 1283 m_a5_proc_0 + w_a3 - w_a5 >= -1282.941728963006
 c156: - 1283 m_a5_proc_0 + w_a8 - w_a5 >= -1283.941728963006
 c157: K_a5_a1 - 1283 m_a1_proc_0 - 1283 m_a5_proc_0 + w_a1 - w_a5 >= 
       -2565.941728963006
 c158: K_a5_a2 - 1283 m_a2_proc_0 - 1283 m_a5_proc_0 + w_a2 - w_a5 >= 
       -2565.941728963006
 c159: K_a5_a3 - 1283 m_a3_proc_0 - 1283 m_a5_proc_0 + w_a3 - w_a5 >= 
       -2565.941728963006
 c160: K_a5_a4 - 1283 m_a4_proc_0 - 1283 m_a5_proc_0 + w_a4 - w_a5 >= 
       -2565.941728963006
 c161: K_a5_a6 - 1283 m_a5_proc_0 - 1283 m_a6_proc_0 + w_a6 - w_a5 >= 
       -2565.941728963006
 c162: K_a5_a7 - 1283 m_a5_proc_0 - 1283 m_a7_proc_0 + w_a7 - w_a5 >= 
       -2565.941728963006
 c163: K_a5_a8 - 1283 m_a5_proc_0 - 1283 m_a8_proc_0 + w_a8 - w_a5 >= 
       -2565.941728963006
 c164: - 1283 m_a5_proc_1 + w_a3 - w_a5 >= -1282.903392754456
 c165: - 1283 m_a5_proc_1 + w_a8 - w_a5 >= -1283.903392754456
 c166: K_a5_a0 - 1283 m_a0_proc_1 - 1283 m_a5_proc_1 + w_a0 - w_a5 >= 
       -2565.903392754456
 c167: K_a5_a2 - 1283 m_a2_proc_1 - 1283 m_a5_proc_1 + w_a2 - w_a5 >= 
       -2565.903392754456
 c168: K_a5_a4 - 1283 m_a4_proc_1 - 1283 m_a5_proc_1 + w_a4 - w_a5 >= 
       -2565.903392754456
 c169: K_a5_a6 - 1283 m_a5_proc_1 - 1283 m_a6_proc_1 + w_a6 - w_a5 >= 
       -2565.903392754456
 c170: K_a5_a7 - 1283 m_a5_proc_1 - 1283 m_a7_proc_1 + w_a7 - w_a5 >= 
       -2565.903392754456
 c171: K_a5_a8 - 1283 m_a5_proc_1 - 1283 m_a8_proc_1 + w_a8 - w_a5 >= 
       -2565.903392754456
 c172: K_a5_a9 - 1283 m_a5_proc_1 - 1283 m_a9_proc_1 + w_a9 - w_a5 >= 
       -2565.903392754456
 c173: - 1283 m_a6_proc_0 + w_a4 - w_a6 >= -1282.945275062296
 c174: K_a6_a1 - 1283 m_a1_proc_0 - 1283 m_a6_proc_0 + w_a1 - w_a6 >= 
       -2565.945275062296
 c175: K_a6_a2 - 1283 m_a2_proc_0 - 1283 m_a6_proc_0 + w_a2 - w_a6 >= 
       -2565.945275062296
 c176: K_a6_a3 - 1283 m_a3_proc_0 - 1283 m_a6_proc_0 + w_a3 - w_a6 >= 
       -2565.945275062296
 c177: K_a6_a4 - 1283 m_a4_proc_0 - 1283 m_a6_proc_0 + w_a4 - w_a6 >= 
       -2565.945275062296
 c178: K_a6_a5 - 1283 m_a5_proc_0 - 1283 m_a6_proc_0 + w_a5 - w_a6 >= 
       -2565.945275062296
 c179: K_a6_a7 - 1283 m_a6_proc_0 - 1283 m_a7_proc_0 + w_a7 - w_a6 >= 
       -2565.945275062296
 c180: K_a6_a8 - 1283 m_a6_proc_0 - 1283 m_a8_proc_0 + w_a8 - w_a6 >= 
       -2565.945275062296
 c181: - 1283 m_a6_proc_1 + w_a4 - w_a6 >= -1282.932815794518
 c182: K_a6_a0 - 1283 m_a0_proc_1 - 1283 m_a6_proc_1 + w_a0 - w_a6 >= 
       -2565.932815794518
 c183: K_a6_a2 - 1283 m_a2_proc_1 - 1283 m_a6_proc_1 + w_a2 - w_a6 >= 
       -2565.932815794518
 c184: K_a6_a4 - 1283 m_a4_proc_1 - 1283 m_a6_proc_1 + w_a4 - w_a6 >= 
       -2565.932815794518
 c185: K_a6_a5 - 1283 m_a5_proc_1 - 1283 m_a6_proc_1 + w_a5 - w_a6 >= 
       -2565.932815794518
 c186: K_a6_a7 - 1283 m_a6_proc_1 - 1283 m_a7_proc_1 + w_a7 - w_a6 >= 
       -2565.932815794518
 c187: K_a6_a8 - 1283 m_a6_proc_1 - 1283 m_a8_proc_1 + w_a8 - w_a6 >= 
       -2565.932815794518
 c188: K_a6_a9 - 1283 m_a6_proc_1 - 1283 m_a9_proc_1 + w_a9 - w_a6 >= 
       -2565.932815794518
 c189: - 1283 m_a7_proc_0 + w_a9 - w_a7 >= -1282.920835729346
 c190: K_a7_a1 - 1283 m_a1_proc_0 - 1283 m_a7_proc_0 + w_a1 - w_a7 >= 
       -2565.920835729346
 c191: K_a7_a2 - 1283 m_a2_proc_0 - 1283 m_a7_proc_0 + w_a2 - w_a7 >= 
       -2565.920835729346
 c192: K_a7_a3 - 1283 m_a3_proc_0 - 1283 m_a7_proc_0 + w_a3 - w_a7 >= 
       -2565.920835729346
 c193: K_a7_a4 - 1283 m_a4_proc_0 - 1283 m_a7_proc_0 + w_a4 - w_a7 >= 
       -2565.920835729346
 c194: K_a7_a5 - 1283 m_a5_proc_0 - 1283 m_a7_proc_0 + w_a5 - w_a7 >= 
       -2565.920835729346
 c195: K_a7_a6 - 1283 m_a6_proc_0 - 1283 m_a7_proc_0 + w_a6 - w_a7 >= 
       -2565.920835729346
 c196: K_a7_a8 - 1283 m_a7_proc_0 - 1283 m_a8_proc_0 + w_a8 - w_a7 >= 
       -2565.920835729346
 c197: - 1283 m_a7_proc_1 + w_a9 - w_a7 >= -1282.912210082423
 c198: K_a7_a0 - 1283 m_a0_proc_1 - 1283 m_a7_proc_1 + w_a0 - w_a7 >= 
       -2565.912210082423
 c199: K_a7_a2 - 1283 m_a2_proc_1 - 1283 m_a7_proc_1 + w_a2 - w_a7 >= 
       -2565.912210082423
 c200: K_a7_a4 - 1283 m_a4_proc_1 - 1283 m_a7_proc_1 + w_a4 - w_a7 >= 
       -2565.912210082423
 c201: K_a7_a5 - 1283 m_a5_proc_1 - 1283 m_a7_proc_1 + w_a5 - w_a7 >= 
       -2565.912210082423
 c202: K_a7_a6 - 1283 m_a6_proc_1 - 1283 m_a7_proc_1 + w_a6 - w_a7 >= 
       -2565.912210082423
 c203: K_a7_a8 - 1283 m_a7_proc_1 - 1283 m_a8_proc_1 + w_a8 - w_a7 >= 
       -2565.912210082423
 c204: K_a7_a9 - 1283 m_a7_proc_1 - 1283 m_a9_proc_1 + w_a9 - w_a7 >= 
       -2565.912210082423
 c205: - 1283 m_a8_proc_0 + w_a5 - w_a8 >= -1282.889400038336
 c206: K_a8_a1 - 1283 m_a1_proc_0 - 1283 m_a8_proc_0 + w_a1 - w_a8 >= 
       -2565.889400038336
 c207: K_a8_a2 - 1283 m_a2_proc_0 - 1283 m_a8_proc_0 + w_a2 - w_a8 >= 
       -2565.889400038336
 c208: K_a8_a3 - 1283 m_a3_proc_0 - 1283 m_a8_proc_0 + w_a3 - w_a8 >= 
       -2565.889400038336
 c209: K_a8_a4 - 1283 m_a4_proc_0 - 1283 m_a8_proc_0 + w_a4 - w_a8 >= 
       -2565.889400038336
 c210: K_a8_a5 - 1283 m_a5_proc_0 - 1283 m_a8_proc_0 + w_a5 - w_a8 >= 
       -2565.889400038336
 c211: K_a8_a6 - 1283 m_a6_proc_0 - 1283 m_a8_proc_0 + w_a6 - w_a8 >= 
       -2565.889400038336
 c212: K_a8_a7 - 1283 m_a7_proc_0 - 1283 m_a8_proc_0 + w_a7 - w_a8 >= 
       -2565.889400038336
 c213: - 1283 m_a8_proc_1 + w_a5 - w_a8 >= -1282.950833812536
 c214: K_a8_a0 - 1283 m_a0_proc_1 - 1283 m_a8_proc_1 + w_a0 - w_a8 >= 
       -2565.950833812536
 c215: K_a8_a2 - 1283 m_a2_proc_1 - 1283 m_a8_proc_1 + w_a2 - w_a8 >= 
       -2565.950833812536
 c216: K_a8_a4 - 1283 m_a4_proc_1 - 1283 m_a8_proc_1 + w_a4 - w_a8 >= 
       -2565.950833812536
 c217: K_a8_a5 - 1283 m_a5_proc_1 - 1283 m_a8_proc_1 + w_a5 - w_a8 >= 
       -2565.950833812536
 c218: K_a8_a6 - 1283 m_a6_proc_1 - 1283 m_a8_proc_1 + w_a6 - w_a8 >= 
       -2565.950833812536
 c219: K_a8_a7 - 1283 m_a7_proc_1 - 1283 m_a8_proc_1 + w_a7 - w_a8 >= 
       -2565.950833812536
 c220: K_a8_a9 - 1283 m_a8_proc_1 - 1283 m_a9_proc_1 + w_a9 - w_a8 >= 
       -2565.950833812536
 c221: - 1283 m_a9_proc_1 + w_a5 - w_a9 >= -1283.886620663216
 c222: - 1283 m_a9_proc_1 + w_a4 - w_a9 >= -1283.886620663216
 c223: K_a9_a0 - 1283 m_a0_proc_1 - 1283 m_a9_proc_1 + w_a0 - w_a9 >= 
       -2565.886620663216
 c224: K_a9_a2 - 1283 m_a2_proc_1 - 1283 m_a9_proc_1 + w_a2 - w_a9 >= 
       -2565.886620663216
 c225: K_a9_a4 - 1283 m_a4_proc_1 - 1283 m_a9_proc_1 + w_a4 - w_a9 >= 
       -2565.886620663216
 c226: K_a9_a5 - 1283 m_a5_proc_1 - 1283 m_a9_proc_1 + w_a5 - w_a9 >= 
       -2565.886620663216
 c227: K_a9_a6 - 1283 m_a6_proc_1 - 1283 m_a9_proc_1 + w_a6 - w_a9 >= 
       -2565.886620663216
 c228: K_a9_a7 - 1283 m_a7_proc_1 - 1283 m_a9_proc_1 + w_a7 - w_a9 >= 
       -2565.886620663216
 c229: K_a9_a8 - 1283 m_a8_proc_1 - 1283 m_a9_proc_1 + w_a8 - w_a9 >= 
       -2565.886620663216
 c230: z - 0.000119746138 K_a0_a6 - 0.000119746138 K_a3_a1
       - 0.000119746138 K_a9_a8 + 0.153634295294 m_a0_proc_1
       + 0.153634295294 m_a1_proc_0 + 0.153634295294 m_a3_proc_0
       - 0.047898455275 m_a5_proc_0 - 0.015566997964 m_a6_proc_0
       + 0.153634295294 m_a6_proc_1 - 0.010777152437 m_a7_proc_0
       + 0.153634295294 m_a8_proc_1 + 0.153634295294 m_a9_proc_1 <= 
       0.921805771764
 c231: z - 0.000136742787 K_a1_a7 + 0.175440995487 m_a1_proc_0
       - 0.065499794886 m_a2_proc_0 + 0.175440995487 m_a7_proc_0 <= 
       0.351155476549

Bounds
 -inf <= K_a0_a1 <= 1000000000
 -inf <= K_a0_a2 <= 1000000000
 -inf <= K_a0_a3 <= 1000000000
 -inf <= K_a0_a4 <= 1000000000
 -inf <= K_a0_a5 <= 1000000000
 -inf <= K_a0_a6 <= 1000000000
 -inf <= K_a0_a7 <= 1000000000
 -inf <= K_a0_a8 <= 1000000000
 -inf <= K_a0_a9 <= 1000000000
 -inf <= K_a1_a0 <= 1000000000
 -inf <= K_a1_a2 <= 1000000000
 -inf <= K_a1_a3 <= 1000000000
 -inf <= K_a1_a4 <= 1000000000
 -inf <= K_a1_a5 <= 1000000000
 -inf <= K_a1_a6 <= 1000000000
 -inf <= K_a1_a7 <= 1000000000
 -inf <= K_a1_a8 <= 1000000000
 -inf <= K_a1_a9 <= 1000000000
 -inf <= K_a2_a0 <= 1000000000
 -inf <= K_a2_a1 <= 1000000000
 -inf <= K_a2_a3 <= 1000000000
 -inf <= K_a2_a4 <= 1000000000
 -inf <= K_a2_a5 <= 1000000000
 -inf <= K_a2_a6 <= 1000000000
 -inf <= K_a2_a7 <= 1000000000
 -inf <= K_a2_a8 <= 1000000000
 -inf <= K_a2_a9 <= 1000000000
 -inf <= K_a3_a0 <= 1000000000
 -inf <= K_a3_a1 <= 1000000000
 -inf <= K_a3_a2 <= 1000000000
 -inf <= K_a3_a4 <= 1000000000
 -inf <= K_a3_a5 <= 1000000000
 -inf <= K_a3_a6 <= 1000000000
 -inf <= K_a3_a7 <= 1000000000
 -inf <= K_a3_a8 <= 1000000000
 -inf <= K_a3_a9 <= 1000000000
 -inf <= K_a4_a0 <= 1000000000
 -inf <= K_a4_a1 <= 1000000000
 -inf <= K_a4_a2 <= 1000000000
 -inf <= K_a4_a3 <= 1000000000
 -inf <= K_a4_a5 <= 1000000000
 -inf <= K_a4_a6 <= 1000000000
 -inf <= K_a4_a7 <= 1000000000
 -inf <= K_a4_a8 <= 1000000000
 -inf <= K_a4_a9 <= 1000000000
 -inf <= K_a5_a0 <= 1000000000
 -inf <= K_a5_a1 <= 1000000000
 -inf <= K_a5_a2 <= 1000000000
 -inf <= K_a5_a3 <= 1000000000
 -inf <= K_a5_a4 <= 1000000000
 -inf <= K_a5_a6 <= 1000000000
 -inf <= K_a5_a7 <= 1000000000
 -inf <= K_a5_a8 <= 1000000000
 -inf <= K_a5_a9 <= 1000000000
 -inf <= K_a6_a0 <= 1000000000
 -inf <= K_a6_a1 <= 1000000000
 -inf <= K_a6_a2 <= 1000000000
 -inf <= K_a6_a3 <= 1000000000
 -inf <= K_a6_a4 <= 1000000000
 -inf <= K_a6_a5 <= 1000000000
 -inf <= K_a6_a7 <= 1000000000
 -inf <= K_a6_a8 <= 1000000000
 -inf <= K_a6_a9 <= 1000000000
 -inf <= K_a7_a0 <= 1000000000
 -inf <= K_a7_a1 <= 1000000000
 -inf <= K_a7_a2 <= 1000000000
 -inf <= K_a7_a3 <= 1000000000
 -inf <= K_a7_a4 <= 1000000000
 -inf <= K_a7_a5 <= 1000000000
 -inf <= K_a7_a6 <= 1000000000
 -inf <= K_a7_a8 <= 1000000000
 -inf <= K_a7_a9 <= 1000000000
 -inf <= K_a8_a0 <= 1000000000
 -inf <= K_a8_a1 <= 1000000000
 -inf <= K_a8_a2 <= 1000000000
 -inf <= K_a8_a3 <= 1000000000
 -inf <= K_a8_a4 <= 1000000000
 -inf <= K_a8_a5 <= 1000000000
 -inf <= K_a8_a6 <= 1000000000
 -inf <= K_a8_a7 <= 1000000000
 -inf <= K_a8_a9 <= 1000000000
 -inf <= K_a9_a0 <= 1000000000
 -inf <= K_a9_a1 <= 1000000000
 -inf <= K_a9_a2 <= 1000000000
 -inf <= K_a9_a3 <= 1000000000
 -inf <= K_a9_a4 <= 1000000000
 -inf <= K_a9_a5 <= 1000000000
 -inf <= K_a9_a6 <= 1000000000
 -inf <= K_a9_a7 <= 1000000000
 -inf <= K_a9_a8 <= 1000000000
 0 <= m_a0_proc_1 <= 1
 0 <= m_a1_proc_0 <= 1
 0 <= m_a2_proc_0 <= 1
 0 <= m_a2_proc_1 <= 1
 0 <= m_a3_proc_0 <= 1
 0 <= m_a4_proc_0 <= 1
 0 <= m_a4_proc_1 <= 1
 0 <= m_a5_proc_0 <= 1
 0 <= m_a5_proc_1 <= 1
 0 <= m_a6_proc_0 <= 1
 0 <= m_a6_proc_1 <= 1
 0 <= m_a7_proc_0 <= 1
 0 <= m_a7_proc_1 <= 1
 0 <= m_a8_proc_0 <= 1
 0 <= m_a8_proc_1 <= 1
 0 <= m_a9_proc_1 <= 1

Binaries
 m_a0_proc_1 m_a1_proc_0 m_a2_proc_0 m_a2_proc_1 m_a3_proc_0 m_a4_proc_0
 m_a4_proc_1 m_a5_proc_0 m_a5_proc_1 m_a6_proc_0 m_a6_proc_1 m_a7_proc_0
 m_a7_proc_1 m_a8_proc_0 m_a8_proc_1 m_a9_proc_1

Generals
 K_a0_a1 K_a0_a2 K_a0_a3 K_a0_a4 K_a0_a5 K_a0_a6 K_a0_a7 K_a0_a8 K_a0_a9 K_a1_a0
 K_a1_a2 K_a1_a3 K_a1_a4 K_a1_a5 K_a1_a6 K_a1_a7 K_a1_a8 K_a1_a9 K_a2_a0 K_a2_a1
 K_a2_a3 K_a2_a4 K_a2_a5 K_a2_a6 K_a2_a7 K_a2_a8 K_a2_a9 K_a3_a0 K_a3_a1 K_a3_a2
 K_a3_a4 K_a3_a5 K_a3_a6 K_a3_a7 K_a3_a8 K_a3_a9 K_a4_a0 K_a4_a1 K_a4_a2 K_a4_a3
 K_a4_a5 K_a4_a6 K_a4_a7 K_a4_a8 K_a4_a9 K_a5_a0 K_a5_a1 K_a5_a2 K_a5_a3 K_a5_a4
 K_a5_a6 K_a5_a7 K_a5_a8 K_a5_a9 K_a6_a0 K_a6_a1 K_a6_a2 K_a6_a3 K_a6_a4 K_a6_a5
 K_a6_a7 K_a6_a8 K_a6_a9 K_a7_a0 K_a7_a1 K_a7_a2 K_a7_a3 K_a7_a4 K_a7_a5 K_a7_a6
 K_a7_a8 K_a7_a9 K_a8_a0 K_a8_a1 K_a8_a2 K_a8_a3 K_a8_a4 K_a8_a5 K_a8_a6 K_a8_a7
 K_a8_a9 K_a9_a0 K_a9_a1 K_a9_a2 K_a9_a3 K_a9_a4 K_a9_a5 K_a9_a6 K_a9_a7 K_a9_a8
End
