benchmark/results/graph__10-1000-0.10-02_1/graph__10-1000-0.10-02_1_Quinton_Benders_master.txt
solution for: Quinton Benders_master
objective: 0.689379
status: OPTIMAL_SOLUTION(2)
K_a0_a1=1000000000
K_a0_a2=1
K_a0_a3=1000000000
K_a0_a4=1
K_a0_a5=1284
K_a0_a6=1285
K_a0_a7=1283
K_a0_a8=1284
K_a1_a0=1000000000
K_a1_a2=1283
K_a1_a4=1283
K_a1_a6=1
K_a1_a7=-1
K_a1_a8=1
K_a1_a9=1000000000
K_a2_a1=-1282
K_a2_a3=1284
K_a2_a4=1
K_a2_a5=1284
K_a2_a6=1284
K_a2_a7=1283
K_a2_a8=1284
K_a3_a0=1000000000
K_a3_a1=1
K_a3_a2=-1283
K_a3_a4=1283
K_a3_a5=1
K_a3_a6=1
K_a3_a8=1
K_a3_a9=1000000000
K_a4_a1=-1282
K_a4_a3=-1282
K_a4_a5=1283
K_a4_a6=1284
K_a4_a7=1283
K_a4_a8=1284
K_a5_a0=-1283
K_a5_a1=1
K_a5_a2=-1283
K_a5_a4=-1282
K_a5_a6=1
K_a5_a8=1
K_a5_a9=1283
K_a6_a0=-1284
K_a6_a2=-1283
K_a6_a4=-1283
K_a6_a7=-1
K_a6_a9=1282
K_a7_a0=-1282
K_a7_a1=2
K_a7_a2=-1282
K_a7_a3=1
K_a7_a4=-1282
K_a7_a5=1
K_a7_a6=2
K_a7_a8=2
K_a7_a9=1283
K_a8_a0=-1283
K_a8_a2=-1283
K_a8_a4=-1283
K_a8_a6=1
K_a8_a7=-1
K_a8_a9=-1284
K_a9_a0=1
K_a9_a1=1000000000
K_a9_a2=1
K_a9_a3=1000000000
K_a9_a4=1
K_a9_a5=-1282
K_a9_a6=-1281
K_a9_a7=-1282
K_a9_a8=1285
m_a0_proc_1=1
m_a1_proc_0=1
m_a2_proc_1=1
m_a3_proc_0=1
m_a4_proc_1=1
m_a5_proc_0=1
m_a6_proc_0=1
m_a7_proc_0=1
m_a8_proc_0=1
m_a9_proc_1=1
z=0.689
w_a0=1.403
w_a1=0.526
w_a2=1.000
w_a3=0.891
w_a4=0.833
w_a5=0.833
w_a7=1.641
w_a8=0.104
w_a9=1.720
